sifdecoder -A pc64.lnx.gfo -st   PORTFL2

 Problem name: PORTFL2

 Double precision version will be formed

 The objective function uses 62 nonlinear groups
 
 There is 1 linear equality constraint
 
 There are 12 variables bounded from below and above 
 
 
 File successfully decoded
 CUTEST: tools (double precision version) compiled successfully
 CUTEst: ipopt (double precision version) compiled successfully

******************************************************************************
This program contains Ipopt, a library for large-scale nonlinear optimization.
 Ipopt is released as open source code under the Eclipse Public License (EPL).
         For more information visit http://projects.coin-or.org/Ipopt
******************************************************************************

This is Ipopt version trunk, running with linear solver ma57.

Number of nonzeros in equality constraint Jacobian...:       12
Number of nonzeros in inequality constraint Jacobian.:        0
Number of nonzeros in Lagrangian Hessian.............:       78

Total number of variables............................:       12
                     variables with only lower bounds:        0
                variables with lower and upper bounds:       12
                     variables with only upper bounds:        0
Total number of equality constraints.................:        1
Total number of inequality constraints...............:        0
        inequality constraints with only lower bounds:        0
   inequality constraints with lower and upper bounds:        0
        inequality constraints with only upper bounds:        0

iter    objective    inf_pr   inf_du lg(mu)  ||d||  lg(rg) alpha_du alpha_pr  ls
   0  3.4469948e-02 4.00e-10 1.88e-02  -1.0 0.00e+00    -  0.00e+00 0.00e+00   0
   1  3.4411398e-02 3.19e-16 2.22e-16  -1.7 1.42e-03    -  1.00e+00 1.00e+00f  1
   2  3.4171581e-02 1.67e-16 5.08e-03  -3.8 5.71e-03    -  9.77e-01 1.00e+00f  1
   3  3.1034313e-02 2.50e-16 1.54e-17  -3.8 2.21e-01    -  1.00e+00 1.00e+00f  1
   4  3.0120740e-02 8.33e-17 8.11e-04  -5.7 6.05e-02    -  8.29e-01 1.00e+00f  1
   5  2.9784941e-02 1.39e-16 1.24e-17  -5.7 4.84e-02    -  1.00e+00 1.00e+00f  1
   6  2.9711323e-02 8.33e-17 7.84e-18  -5.7 7.72e-03    -  1.00e+00 1.00e+00f  1
   7  2.9690301e-02 2.78e-17 2.56e-06  -8.6 3.73e-03    -  9.90e-01 1.00e+00f  1
   8  2.9689265e-02 0.00e+00 1.02e-17  -8.6 2.04e-04    -  1.00e+00 1.00e+00f  1

Number of Iterations....: 8

                                   (scaled)                 (unscaled)
Objective...............:   2.9689264840891121e-02    2.9689264840891121e-02
Dual infeasibility......:   1.0222349295128294e-17    1.0222349295128294e-17
Constraint violation....:   0.0000000000000000e+00    0.0000000000000000e+00
Complementarity.........:   7.6563475584214431e-09    7.6563475584214431e-09
Overall NLP error.......:   7.6563475584214431e-09    7.6563475584214431e-09


Number of objective function evaluations             = 9
Number of objective gradient evaluations             = 9
Number of equality constraint evaluations            = 9
Number of inequality constraint evaluations          = 0
Number of equality constraint Jacobian evaluations   = 9
Number of inequality constraint Jacobian evaluations = 0
Number of Lagrangian Hessian evaluations             = 8
Total CPU secs in IPOPT (w/o function evaluations)   =      0.011
Total CPU secs in NLP function evaluations           =      0.002

EXIT: Optimal Solution Found.

************************ CUTEst statistics ************************


 Package used            :  IPOPT
 Problem                 :  PORTFL2   
 # variables             =              12
 # constraints           =               1
 # objective functions   =        0.1900000E+02
 # objective gradients   =        0.1000000E+02
 # objective Hessians    =        0.9000000E+01
 # Hessian-vector prdct  =        0.0000000E+00
 # constraints functions =        0.2000000E+02
 # constraints gradients =        0.1100000E+02
 # constraints Hessians  =        0.9000000E+01
 Exit code               =               0
 Final f                 =        2.9689264840891121D-02
 Bounds feasibility      =        0.0000000000000000D+00
 Set up time             =            0.01 seconds
 Solve time              =            0.06 seconds


******************************************************************

